c Created with the Wolfram Language : www.wolfram.com
c 
p edge 90 598
e 1 6
e 3 6
e 2 8
e 1 11
e 5 11
e 3 12
e 7 12
e 8 12
e 10 12
e 2 13
e 3 13
e 10 13
e 12 13
e 6 15
e 2 16
e 3 16
e 15 16
e 1 17
e 6 17
e 11 17
e 3 18
e 5 18
e 13 18
e 15 18
e 2 19
e 3 19
e 4 19
e 6 19
e 9 19
e 16 19
e 6 20
e 12 20
e 13 20
e 11 21
e 14 21
e 16 21
e 19 21
e 12 22
e 14 22
e 15 22
e 11 23
e 13 23
e 17 23
e 20 23
e 7 24
e 8 24
e 19 24
e 20 24
e 2 25
e 9 25
e 22 25
e 2 26
e 4 26
e 24 26
e 4 27
e 6 27
e 9 27
e 11 27
e 13 27
e 2 28
e 14 28
e 18 28
e 11 29
e 21 29
e 3 30
e 5 30
e 23 30
e 3 31
e 10 31
e 11 31
e 13 31
e 24 31
e 28 31
e 2 32
e 7 32
e 11 32
e 12 32
e 17 32
e 20 32
e 23 32
e 30 32
e 1 33
e 7 33
e 19 33
e 20 33
e 28 33
e 32 33
e 26 34
e 29 34
e 33 34
e 2 35
e 4 35
e 8 35
e 11 35
e 16 35
e 23 35
e 27 35
e 29 35
e 31 35
e 32 35
e 3 36
e 7 36
e 8 36
e 9 36
e 11 36
e 12 36
e 18 36
e 23 36
e 32 36
e 2 37
e 20 37
e 25 37
e 26 37
e 2 38
e 5 38
e 8 38
e 11 38
e 18 38
e 28 38
e 33 38
e 34 38
e 37 38
e 1 39
e 15 39
e 21 39
e 23 39
e 32 39
e 35 39
e 6 40
e 12 40
e 26 40
e 28 40
e 29 40
e 36 40
e 4 41
e 8 41
e 19 41
e 28 41
e 32 41
e 35 41
e 36 41
e 2 42
e 9 42
e 11 42
e 1 43
e 10 43
e 11 43
e 30 43
e 32 43
e 41 43
e 42 43
e 8 44
e 12 44
e 38 44
e 39 44
e 3 45
e 19 45
e 36 45
e 12 46
e 14 46
e 15 46
e 18 46
e 29 46
e 35 46
e 40 46
e 45 46
e 4 47
e 7 47
e 21 47
e 24 47
e 32 47
e 44 47
e 9 48
e 13 48
e 16 48
e 18 48
e 22 48
e 23 48
e 28 48
e 39 48
e 2 49
e 14 49
e 22 49
e 28 49
e 31 49
e 42 49
e 43 49
e 44 49
e 46 49
e 13 50
e 14 50
e 18 50
e 26 50
e 31 50
e 43 50
e 8 51
e 11 51
e 24 51
e 26 51
e 36 51
e 37 51
e 45 51
e 3 52
e 18 52
e 26 52
e 35 52
e 36 52
e 47 52
e 8 53
e 11 53
e 14 53
e 19 53
e 28 53
e 31 53
e 52 53
e 1 54
e 4 54
e 5 54
e 17 54
e 18 54
e 23 54
e 28 54
e 45 54
e 1 55
e 8 55
e 10 55
e 17 55
e 32 55
e 41 55
e 43 55
e 48 55
e 51 55
e 6 56
e 14 56
e 15 56
e 24 56
e 25 56
e 28 56
e 30 56
e 33 56
e 34 56
e 41 56
e 45 56
e 51 56
e 52 56
e 54 56
e 4 57
e 5 57
e 7 57
e 9 57
e 10 57
e 12 57
e 15 57
e 16 57
e 20 57
e 29 57
e 30 57
e 35 57
e 36 57
e 43 57
e 46 57
e 8 58
e 22 58
e 28 58
e 41 58
e 48 58
e 50 58
e 53 58
e 55 58
e 57 58
e 15 59
e 30 59
e 38 59
e 42 59
e 57 59
e 3 60
e 13 60
e 14 60
e 18 60
e 19 60
e 22 60
e 46 60
e 49 60
e 15 61
e 26 61
e 31 61
e 33 61
e 35 61
e 39 61
e 49 61
e 58 61
e 1 62
e 7 62
e 28 62
e 30 62
e 33 62
e 42 62
e 43 62
e 57 62
e 9 63
e 15 63
e 16 63
e 20 63
e 30 63
e 44 63
e 55 63
e 5 64
e 15 64
e 23 64
e 32 64
e 40 64
e 45 64
e 1 65
e 4 65
e 15 65
e 17 65
e 28 65
e 39 65
e 41 65
e 44 65
e 48 65
e 49 65
e 53 65
e 60 65
e 64 65
e 1 66
e 8 66
e 21 66
e 22 66
e 23 66
e 47 66
e 4 67
e 6 67
e 28 67
e 33 67
e 36 67
e 38 67
e 39 67
e 42 67
e 60 67
e 7 68
e 9 68
e 13 68
e 22 68
e 28 68
e 35 68
e 39 68
e 60 68
e 8 69
e 13 69
e 26 69
e 34 69
e 36 69
e 43 69
e 52 69
e 54 69
e 56 69
e 20 70
e 28 70
e 29 70
e 47 70
e 52 70
e 56 70
e 22 71
e 53 71
e 60 71
e 68 71
e 3 72
e 12 72
e 13 72
e 16 72
e 18 72
e 35 72
e 37 72
e 41 72
e 50 72
e 65 72
e 71 72
e 4 73
e 6 73
e 12 73
e 13 73
e 27 73
e 33 73
e 38 73
e 39 73
e 46 73
e 48 73
e 53 73
e 55 73
e 57 73
e 21 74
e 25 74
e 26 74
e 32 74
e 37 74
e 41 74
e 43 74
e 46 74
e 48 74
e 52 74
e 64 74
e 1 75
e 2 75
e 13 75
e 15 75
e 16 75
e 19 75
e 23 75
e 30 75
e 37 75
e 41 75
e 51 75
e 58 75
e 69 75
e 74 75
e 1 76
e 3 76
e 9 76
e 21 76
e 29 76
e 32 76
e 36 76
e 74 76
e 75 76
e 7 77
e 18 77
e 45 77
e 46 77
e 50 77
e 63 77
e 1 78
e 3 78
e 17 78
e 22 78
e 25 78
e 34 78
e 36 78
e 49 78
e 52 78
e 62 78
e 64 78
e 69 78
e 74 78
e 77 78
e 4 79
e 9 79
e 15 79
e 17 79
e 20 79
e 24 79
e 39 79
e 41 79
e 45 79
e 56 79
e 62 79
e 63 79
e 78 79
e 2 80
e 5 80
e 13 80
e 26 80
e 27 80
e 41 80
e 52 80
e 58 80
e 61 80
e 33 81
e 35 81
e 39 81
e 40 81
e 50 81
e 56 81
e 80 81
e 1 82
e 8 82
e 15 82
e 17 82
e 19 82
e 36 82
e 38 82
e 52 82
e 57 82
e 70 82
e 76 82
e 81 82
e 1 83
e 7 83
e 24 83
e 25 83
e 26 83
e 34 83
e 61 83
e 63 83
e 66 83
e 1 84
e 14 84
e 17 84
e 38 84
e 47 84
e 48 84
e 57 84
e 62 84
e 66 84
e 71 84
e 72 84
e 77 84
e 78 84
e 82 84
e 1 85
e 2 85
e 7 85
e 12 85
e 13 85
e 15 85
e 20 85
e 22 85
e 23 85
e 38 85
e 43 85
e 63 85
e 73 85
e 18 86
e 23 86
e 26 86
e 28 86
e 38 86
e 54 86
e 55 86
e 62 86
e 66 86
e 77 86
e 3 87
e 4 87
e 6 87
e 10 87
e 15 87
e 28 87
e 34 87
e 41 87
e 50 87
e 64 87
e 67 87
e 75 87
e 82 87
e 84 87
e 85 87
e 7 88
e 22 88
e 24 88
e 27 88
e 29 88
e 33 88
e 44 88
e 45 88
e 46 88
e 50 88
e 55 88
e 58 88
e 64 88
e 70 88
e 73 88
e 78 88
e 7 89
e 11 89
e 13 89
e 19 89
e 23 89
e 32 89
e 37 89
e 45 89
e 61 89
e 62 89
e 66 89
e 69 89
e 70 89
e 72 89
e 79 89
e 80 89
e 85 89
e 88 89
e 2 90
e 4 90
e 12 90
e 19 90
e 23 90
e 24 90
e 29 90
e 34 90
e 38 90
e 49 90
e 51 90
e 66 90
e 67 90
e 75 90
e 79 90
e 80 90
e 85 90
